tsp_instances/TSP20/instance33.tsp
NODE_COORD_SECTION
0 20 157
1 161 102
2 158 4
3 54 57
4 138 77
5 103 133
6 23 168
7 1 175
8 87 155
9 48 89
10 46 34
11 193 133
12 50 181
13 188 6
14 7 54
15 132 102
16 117 38
17 153 71
18 163 108
19 173 60
