tsp_instances/TSP20/instance33.opt.tour
TOUR_SECTION
1
8
7
13
9
6
16
12
19
2
5
18
20
14
3
17
4
11
15
10
-1